<number of tasks>
45

<cycle time>
56

<task times>
1 9
2 9
3 10
4 10
5 17
6 17
7 13
8 13
9 20
10 20
11 10
12 11
13 6
14 22
15 11
16 19
17 12
18 3
19 7
20 4
21 55
22 14
23 27
24 29
25 26
26 6
27 5
28 24
29 4
30 5
31 7
32 4
33 15
34 3
35 7
36 9
37 4
38 7
39 5
40 4
41 21
42 12
43 6
44 5
45 5

<precedence relations>
1,3
1,7
2,4
2,8
3,5
4,6
5,9
6,10
7,9
7,14
8,10
8,14
9,41
10,41
11,13
12,13
12,37
13,14
13,15
14,17
14,25
14,29
14,30
14,31
14,32
15,16
15,18
15,23
15,24
16,19
17,26
17,27
18,19
19,20
19,33
20,21
21,22
22,28
23,33
24,33
25,26
26,38
27,28
27,33
28,38
29,41
30,41
31,41
32,41
33,34
33,35
33,36
34,38
35,40
36,38
37,43
38,40
39,41
40,41
41,42
42,44
42,45

<setup times forward>
1,7:1
1,8:1
1,10:1
1,16:1
1,18:1
1,19:1
1,21:1
1,23:1
1,24:1
1,39:1
1,43:1
2,7:1
2,8:1
2,9:1
2,16:1
2,18:1
2,19:1
2,21:1
2,23:1
2,24:1
2,39:1
2,43:1
3,7:1
3,8:1
3,10:1
3,16:1
3,18:1
3,19:1
3,21:1
3,23:1
3,24:1
3,26:1
3,28:1
3,29:1
3,30:1
3,31:1
3,32:1
3,34:1
3,35:1
3,39:1
3,43:1
4,7:1
4,8:1
4,9:1
4,16:1
4,18:1
4,19:1
4,21:1
4,23:1
4,24:1
4,26:1
4,28:1
4,29:1
4,30:1
4,31:1
4,32:1
4,34:1
4,35:1
4,39:1
4,43:1
5,7:1
5,8:1
5,9:1
5,10:1
5,16:1
5,18:1
5,19:1
5,21:1
5,23:1
5,24:1
5,26:1
5,28:1
5,29:1
5,30:1
5,31:1
5,32:1
5,34:1
5,35:1
5,39:1
5,43:1
6,7:1
6,8:1
6,9:1
6,10:1
6,16:1
6,18:1
6,19:1
6,21:1
6,23:1
6,24:1
6,26:1
6,28:1
6,29:1
6,30:1
6,31:1
6,32:1
6,34:1
6,35:1
6,39:1
6,43:1
7,2:1
7,3:1
7,4:1
7,5:1
7,6:1
7,10:2
7,11:1
7,12:1
7,13:1
7,14:1
7,15:1
7,20:1
7,22:1
7,37:1
7,39:2
8,1:1
8,3:1
8,4:1
8,5:1
8,6:1
8,10:2
8,11:1
8,12:1
8,13:1
8,14:1
8,15:1
8,20:1
8,22:1
8,37:1
8,39:2
9,2:1
9,4:1
9,6:1
9,10:2
9,11:1
9,12:1
9,13:1
9,14:1
9,15:1
9,17:1
9,20:1
9,22:1
9,25:1
9,27:1
9,28:2
9,33:1
9,35:2
9,36:1
9,37:1
9,38:1
9,39:2
9,40:1
9,41:1
10,1:1
10,3:1
10,5:1
10,7:2
10,9:2
10,11:1
10,12:1
10,13:1
10,14:1
10,15:1
10,16:2
10,17:1
10,18:2
10,19:2
10,20:1
10,21:2
10,22:1
10,23:2
10,24:2
10,25:1
10,26:2
10,27:1
10,29:2
10,30:2
10,31:2
10,32:2
10,33:1
10,34:2
10,36:1
10,37:1
10,38:1
10,40:1
10,41:1
10,43:2
11,7:1
11,8:1
11,9:1
11,10:1
11,39:1
11,43:1
12,7:1
12,8:1
12,9:1
12,10:1
12,39:1
13,7:1
13,8:1
13,9:1
13,10:1
13,39:1
13,43:1
14,9:1
14,10:1
14,16:1
14,18:1
14,19:1
14,21:1
14,23:1
14,24:1
14,29:1
14,30:1
14,31:1
14,32:1
14,39:1
14,43:1
15,7:1
15,8:1
15,9:1
15,10:1
15,16:1
15,18:1
15,23:1
15,24:1
15,26:1
15,29:1
15,30:1
15,31:1
15,32:1
15,39:1
15,43:1
16,1:1
16,2:1
16,3:1
16,4:1
16,5:1
16,6:1
16,10:2
16,14:1
16,17:1
16,25:1
16,27:1
16,37:1
16,39:2
17,9:1
17,10:1
17,16:1
17,18:1
17,19:1
17,21:1
17,23:1
17,24:1
17,26:1
17,29:1
17,30:1
17,31:1
17,32:1
17,39:1
17,43:1
18,1:1
18,2:1
18,3:1
18,4:1
18,5:1
18,6:1
18,10:2
18,14:1
18,17:1
18,25:1
18,27:1
18,37:1
18,39:2
19,1:1
19,2:1
19,3:1
19,4:1
19,5:1
19,6:1
19,10:2
19,14:1
19,17:1
19,20:1
19,25:1
19,27:1
19,33:1
19,37:1
19,39:2
20,7:1
20,8:1
20,9:1
20,10:1
20,21:1
20,23:1
20,24:1
20,26:1
20,29:1
20,30:1
20,31:1
20,32:1
20,34:1
20,35:1
20,39:1
20,43:1
21,1:1
21,2:1
21,3:1
21,4:1
21,5:1
21,6:1
21,10:2
21,14:1
21,17:1
21,22:1
21,25:1
21,27:1
21,33:1
21,35:2
21,36:1
21,37:1
21,39:2
22,7:1
22,8:1
22,9:1
22,10:1
22,23:1
22,24:1
22,26:1
22,28:1
22,29:1
22,30:1
22,31:1
22,32:1
22,34:1
22,35:1
22,39:1
22,43:1
23,1:1
23,2:1
23,3:1
23,4:1
23,5:1
23,6:1
23,10:2
23,14:1
23,17:1
23,20:1
23,22:1
23,25:1
23,27:1
23,28:2
23,33:1
23,37:1
23,39:2
24,1:1
24,2:1
24,3:1
24,4:1
24,5:1
24,6:1
24,10:2
24,14:1
24,17:1
24,20:1
24,22:1
24,25:1
24,27:1
24,28:2
24,33:1
24,37:1
24,39:2
25,9:1
25,10:1
25,16:1
25,18:1
25,19:1
25,21:1
25,23:1
25,24:1
25,26:1
25,28:1
25,29:1
25,30:1
25,31:1
25,32:1
25,34:1
25,35:1
25,39:1
25,43:1
26,3:1
26,4:1
26,5:1
26,6:1
26,10:2
26,15:1
26,20:1
26,22:1
26,27:1
26,28:2
26,33:1
26,35:2
26,36:1
26,37:1
26,38:1
26,39:2
27,9:1
27,10:1
27,16:1
27,18:1
27,19:1
27,21:1
27,23:1
27,24:1
27,26:1
27,28:1
27,29:1
27,30:1
27,31:1
27,32:1
27,39:1
27,43:1
28,3:1
28,4:1
28,5:1
28,6:1
28,9:2
28,23:2
28,24:2
28,25:1
28,26:2
28,29:2
28,30:2
28,31:2
28,32:2
28,33:1
28,34:2
28,36:1
28,37:1
28,38:1
28,43:2
29,3:1
29,4:1
29,5:1
29,6:1
29,10:2
29,15:1
29,17:1
29,20:1
29,22:1
29,25:1
29,27:1
29,28:2
29,33:1
29,35:2
29,36:1
29,37:1
29,38:1
29,39:2
29,40:1
29,41:1
30,3:1
30,4:1
30,5:1
30,6:1
30,10:2
30,15:1
30,17:1
30,20:1
30,22:1
30,25:1
30,27:1
30,28:2
30,33:1
30,35:2
30,36:1
30,37:1
30,38:1
30,39:2
30,40:1
30,41:1
31,3:1
31,4:1
31,5:1
31,6:1
31,10:2
31,15:1
31,17:1
31,20:1
31,22:1
31,25:1
31,27:1
31,28:2
31,33:1
31,35:2
31,36:1
31,37:1
31,38:1
31,39:2
31,40:1
31,41:1
32,3:1
32,4:1
32,5:1
32,6:1
32,10:2
32,15:1
32,17:1
32,20:1
32,22:1
32,25:1
32,27:1
32,28:2
32,33:1
32,35:2
32,36:1
32,37:1
32,38:1
32,39:2
32,40:1
32,41:1
33,9:1
33,10:1
33,21:1
33,26:1
33,28:1
33,29:1
33,30:1
33,31:1
33,32:1
33,34:1
33,35:1
33,39:1
33,43:1
34,3:1
34,4:1
34,5:1
34,6:1
34,10:2
34,20:1
34,22:1
34,25:1
34,28:2
34,35:2
34,36:1
34,37:1
34,38:1
34,39:2
35,3:1
35,4:1
35,5:1
35,6:1
35,9:2
35,20:1
35,21:2
35,22:1
35,25:1
35,26:2
35,29:2
35,30:2
35,31:2
35,32:2
35,34:2
35,36:1
35,37:1
35,38:1
35,40:1
35,43:2
36,9:1
36,10:1
36,21:1
36,26:1
36,28:1
36,29:1
36,30:1
36,31:1
36,32:1
36,34:1
36,35:1
36,39:1
36,43:1
37,7:1
37,8:1
37,9:1
37,10:1
37,16:1
37,18:1
37,19:1
37,21:1
37,23:1
37,24:1
37,26:1
37,28:1
37,29:1
37,30:1
37,31:1
37,32:1
37,34:1
37,35:1
37,39:1
37,43:1
38,9:1
38,10:1
38,29:1
38,30:1
38,31:1
38,32:1
38,35:1
38,39:1
38,43:1
39,1:1
39,2:1
39,3:1
39,4:1
39,5:1
39,6:1
39,7:2
39,8:2
39,9:2
39,11:1
39,12:1
39,13:1
39,14:1
39,15:1
39,16:2
39,17:1
39,18:2
39,19:2
39,20:1
39,21:2
39,22:1
39,23:2
39,24:2
39,25:1
39,26:2
39,27:1
39,29:2
39,30:2
39,31:2
39,32:2
39,33:1
39,34:2
39,36:1
39,37:1
39,38:1
39,40:1
39,41:1
39,43:2
40,9:1
40,10:1
40,29:1
40,30:1
40,31:1
40,32:1
40,39:1
40,43:1
41,43:1
42,43:1
43,1:1
43,2:1
43,3:1
43,4:1
43,5:1
43,6:1
43,10:2
43,11:1
43,13:1
43,14:1
43,15:1
43,17:1
43,20:1
43,22:1
43,25:1
43,27:1
43,28:2
43,33:1
43,35:2
43,36:1
43,38:1
43,39:2
43,40:1
43,41:1
43,42:1
43,44:1
43,45:1
44,43:1
45,43:1

<setup times backward>
1,10:1
1,39:1
2,39:1
3,10:1
3,28:1
3,35:1
3,39:1
4,28:1
4,35:1
4,39:1
5,10:1
5,28:1
5,35:1
5,39:1
6,28:1
6,35:1
6,39:1
7,1:1
7,2:1
7,3:1
7,4:1
7,5:1
7,6:1
7,10:2
7,11:1
7,12:1
7,13:1
7,15:1
7,20:1
7,22:1
7,37:1
7,39:2
8,1:1
8,2:1
8,3:1
8,4:1
8,5:1
8,6:1
8,11:1
8,12:1
8,13:1
8,15:1
8,20:1
8,22:1
8,37:1
8,39:2
9,1:1
9,2:1
9,3:1
9,4:1
9,5:1
9,6:1
9,10:2
9,11:1
9,12:1
9,13:1
9,14:1
9,15:1
9,17:1
9,20:1
9,22:1
9,25:1
9,27:1
9,28:2
9,33:1
9,35:2
9,36:1
9,37:1
9,38:1
9,39:2
9,40:1
11,10:1
11,39:1
12,10:1
12,39:1
13,10:1
13,39:1
14,10:1
14,39:1
15,10:1
15,39:1
16,1:1
16,2:1
16,3:1
16,4:1
16,5:1
16,6:1
16,10:2
16,11:1
16,12:1
16,13:1
16,14:1
16,15:1
16,17:1
16,25:1
16,27:1
16,37:1
16,39:2
17,10:1
17,39:1
18,1:1
18,2:1
18,3:1
18,4:1
18,5:1
18,6:1
18,10:2
18,11:1
18,12:1
18,13:1
18,14:1
18,15:1
18,17:1
18,25:1
18,27:1
18,37:1
18,39:2
19,1:1
19,2:1
19,3:1
19,4:1
19,5:1
19,6:1
19,10:2
19,11:1
19,12:1
19,13:1
19,14:1
19,15:1
19,17:1
19,25:1
19,27:1
19,37:1
19,39:2
20,10:1
20,35:1
20,39:1
21,1:1
21,2:1
21,3:1
21,4:1
21,5:1
21,6:1
21,10:2
21,11:1
21,12:1
21,13:1
21,14:1
21,15:1
21,17:1
21,20:1
21,25:1
21,27:1
21,33:1
21,35:2
21,36:1
21,37:1
21,39:2
22,10:1
22,35:1
22,39:1
23,1:1
23,2:1
23,3:1
23,4:1
23,5:1
23,6:1
23,10:2
23,11:1
23,12:1
23,13:1
23,14:1
23,15:1
23,17:1
23,20:1
23,22:1
23,25:1
23,27:1
23,28:2
23,37:1
23,39:2
24,1:1
24,2:1
24,3:1
24,4:1
24,5:1
24,6:1
24,10:2
24,11:1
24,12:1
24,13:1
24,14:1
24,15:1
24,17:1
24,20:1
24,22:1
24,25:1
24,27:1
24,28:2
24,37:1
24,39:2
25,10:1
25,28:1
25,35:1
25,39:1
26,1:1
26,2:1
26,3:1
26,4:1
26,5:1
26,6:1
26,10:2
26,11:1
26,12:1
26,13:1
26,14:1
26,15:1
26,17:1
26,20:1
26,22:1
26,25:1
26,27:1
26,28:2
26,33:1
26,35:2
26,36:1
26,37:1
26,39:2
27,10:1
27,39:1
29,1:1
29,2:1
29,3:1
29,4:1
29,5:1
29,6:1
29,10:2
29,11:1
29,12:1
29,13:1
29,14:1
29,15:1
29,17:1
29,20:1
29,22:1
29,25:1
29,27:1
29,28:2
29,33:1
29,35:2
29,36:1
29,37:1
29,38:1
29,39:2
29,40:1
30,1:1
30,2:1
30,3:1
30,4:1
30,5:1
30,6:1
30,10:2
30,11:1
30,12:1
30,13:1
30,14:1
30,15:1
30,17:1
30,20:1
30,22:1
30,25:1
30,27:1
30,28:2
30,33:1
30,35:2
30,36:1
30,37:1
30,38:1
30,39:2
30,40:1
31,1:1
31,2:1
31,3:1
31,4:1
31,5:1
31,6:1
31,10:2
31,11:1
31,12:1
31,13:1
31,14:1
31,15:1
31,17:1
31,20:1
31,22:1
31,25:1
31,27:1
31,28:2
31,33:1
31,35:2
31,36:1
31,37:1
31,38:1
31,39:2
31,40:1
32,1:1
32,2:1
32,3:1
32,4:1
32,5:1
32,6:1
32,10:2
32,11:1
32,12:1
32,13:1
32,14:1
32,15:1
32,17:1
32,20:1
32,22:1
32,25:1
32,27:1
32,28:2
32,33:1
32,35:2
32,36:1
32,37:1
32,38:1
32,39:2
32,40:1
33,10:1
33,28:1
33,39:1
34,1:1
34,2:1
34,3:1
34,4:1
34,5:1
34,6:1
34,10:2
34,11:1
34,12:1
34,13:1
34,14:1
34,15:1
34,17:1
34,20:1
34,22:1
34,25:1
34,27:1
34,28:2
34,33:1
34,35:2
34,36:1
34,37:1
34,39:2
36,10:1
36,28:1
36,35:1
36,39:1
37,10:1
37,28:1
37,35:1
37,39:1
38,10:1
38,28:1
38,35:1
38,39:1
40,10:1
40,28:1
40,35:1
40,39:1
41,10:1
41,28:1
41,35:1
41,39:1
42,10:1
42,28:1
42,35:1
42,39:1
43,1:1
43,2:1
43,3:1
43,4:1
43,5:1
43,6:1
43,10:2
43,11:1
43,12:1
43,13:1
43,14:1
43,15:1
43,17:1
43,20:1
43,22:1
43,25:1
43,27:1
43,28:2
43,33:1
43,35:2
43,36:1
43,37:1
43,38:1
43,39:2
43,40:1
43,41:1
43,42:1
43,44:1
43,45:1
44,10:1
44,28:1
44,35:1
44,39:1
45,10:1
45,28:1
45,35:1
45,39:1

<end>

<optimal SALBP-1 value>
10


<rand seed>
467321153

<Lower Bounds>
Lm1=10
Lms1=10
Lm2=2
Lm3=6
Lm4=10
Best=10

<Optimal Stations (Iterations: 10)>
12
